instances/in_40_20_10_4.dzn
n = 40;
k = 20;
h = 10;
tiles = array2d(1..n, 1..2,
[ 13,17
, 8,7
, 14,15
, 13,9
, 2,15
, 20,4
, 8,9
, 16,16
, 2,3
, 4,5
, 3,16
, 19,7
, 17,13
, 20,11
, 19,3
, 1,2
, 7,10
, 13,14
, 10,5
, 19,12
, 17,2
, 17,18
, 16,5
, 2,2
, 6,4
, 12,19
, 6,17
, 14,14
, 12,13
, 20,8
, 6,16
, 5,1
, 15,10
, 13,4
, 14,7
, 4,9
, 6,11
, 2,3
, 11,20
, 1,7
]);