instances/in_40_20_10_4.lp
#const n = 40.
#const k = 20.
#const h = 10.
tile(1,13,17).
tile(2,8,7).
tile(3,14,15).
tile(4,13,9).
tile(5,2,15).
tile(6,20,4).
tile(7,8,9).
tile(8,16,16).
tile(9,2,3).
tile(10,4,5).
tile(11,3,16).
tile(12,19,7).
tile(13,17,13).
tile(14,20,11).
tile(15,19,3).
tile(16,1,2).
tile(17,7,10).
tile(18,13,14).
tile(19,10,5).
tile(20,19,12).
tile(21,17,2).
tile(22,17,18).
tile(23,16,5).
tile(24,2,2).
tile(25,6,4).
tile(26,12,19).
tile(27,6,17).
tile(28,14,14).
tile(29,12,13).
tile(30,20,8).
tile(31,6,16).
tile(32,5,1).
tile(33,15,10).
tile(34,13,4).
tile(35,14,7).
tile(36,4,9).
tile(37,6,11).
tile(38,2,3).
tile(39,11,20).
tile(40,1,7).
